
Value of objective function: 0

Actual values of the variables:
pL1_div_from_law                0
comp_pos0                       0
comp_neg0                       0
comp_pos1                       0
comp_neg1                       0
comp_pos2                       0
comp_neg2                       0
comp_pos3                       0
comp_neg3                       0
comp_pos4                       0
comp_neg4                       0
comp_pos5                       0
comp_neg5                       0
comp_pos6                       0
comp_neg6                       0
comp_pos7                       0
comp_neg7                       0
comp_pos8                       0
comp_neg8                       0
comp_pos9                       0
comp_neg9                       0
comp_pos10                      0
comp_neg10                      0
comp_pos11                      0
comp_neg11                      0
comp_pos12                      0
comp_neg12                      0
comp_pos13                      0
comp_neg13                      0
z_c0_t0               1.32138e+10
p0_c0_t0              1.86104e+09
p1_c0_t0              3.48383e+09
p2_c0_t0                6.266e+09
p3_c0_t0              1.60297e+09
diff0                           0
normdiff0                       0
z_c0_t1               1.47752e+10
p0_c0_t1              1.61714e+09
p1_c0_t1              3.90643e+09
p2_c0_t1              7.37039e+09
p3_c0_t1              1.88123e+09
diff1                           0
normdiff1                       0
z_c1_t0               1.65566e+10
p0_c1_t0              1.86301e+09
p1_c1_t0              4.47642e+09
p2_c1_t0              9.85693e+09
p3_c1_t0              3.60224e+08
diff2                           0
normdiff2                       0
z_c1_t1               1.94959e+10
p0_c1_t1              1.89632e+09
p1_c1_t1              6.36764e+09
p2_c1_t1              1.06982e+10
p3_c1_t1              5.33724e+08
diff3                           0
normdiff3                       0
z_c2_t0               7.24754e+09
p0_c2_t0              6.41995e+08
p1_c2_t0              1.84494e+09
p2_c2_t0              4.44218e+09
p3_c2_t0              3.18431e+08
diff4                           0
normdiff4                       0
z_c2_t1               7.97123e+09
p0_c2_t1              5.26378e+08
p1_c2_t1              2.13493e+09
p2_c2_t1              4.94812e+09
p3_c2_t1              3.61794e+08
diff5                           0
normdiff5                       0
z_c3_t0               1.22612e+10
p0_c3_t0              1.15002e+09
p1_c3_t0              3.12291e+09
p2_c3_t0              6.64086e+09
p3_c3_t0              1.34739e+09
diff6                           0
normdiff6                       0
z_c3_t1               1.42798e+10
p0_c3_t1              1.31379e+09
p1_c3_t1              3.16625e+09
p2_c3_t1              6.75503e+09
p3_c3_t1               3.0447e+09
diff7                           0
normdiff7                       0
z_c4_t0               7.97197e+09
p0_c4_t0              5.12667e+08
p1_c4_t0              3.52951e+09
p2_c4_t0              3.67415e+09
p3_c4_t0              2.55643e+08
diff8                           0
normdiff8                       0
z_c4_t1                8.9819e+09
p0_c4_t1              5.35421e+08
p1_c4_t1              3.18506e+09
p2_c4_t1              5.01445e+09
p3_c4_t1              2.46968e+08
diff9                           0
normdiff9                       0
z_c5_t0               1.00642e+10
p0_c5_t0              9.04069e+08
p1_c5_t0              2.94861e+09
p2_c5_t0              6.00396e+09
p3_c5_t0              2.07511e+08
diff10                          0
normdiff10                      0
z_c5_t1                1.2016e+10
p0_c5_t1              6.60467e+08
p1_c5_t1              2.92038e+09
p2_c5_t1              8.02869e+09
p3_c5_t1              4.06469e+08
diff11                          0
normdiff11                      0
z_c6_t0               1.81204e+10
p0_c6_t0              1.63441e+09
p1_c6_t0              3.68821e+09
p2_c6_t0              1.24503e+10
p3_c6_t0              3.47385e+08
diff12                          0
normdiff12                      0
z_c6_t1               2.06345e+10
p0_c6_t1              1.77501e+09
p1_c6_t1              3.38021e+09
p2_c6_t1               1.5134e+10
p3_c6_t1              3.45252e+08
diff13                          0
normdiff13                      0
